RT is False
Default write of storage_offers_DA.csv just to have a file (but constraint should be inactive)
Reading model...
...model read.
creating competitive generators file...
...competitive generators recorded.
Loading data...
.. day-ahead data read.
Compiling instance...
...instance created.
Creating Offer Mitigation (model will solve as dispatch if TRUE)...
NOTE: storage offers will not be mitigated
...storage offer mitigation file created
Converting model to MPEC...
...converted
NOTE: initial MIP solve with only storage competitive to get feasible solution
Solving...

Welcome to IBM(R) ILOG(R) CPLEX(R) Interactive Optimizer 12.9.0.0
  with Simplex, Mixed Integer & Barrier Optimizers
5725-A06 5725-A29 5724-Y48 5724-Y49 5724-Y54 5724-Y55 5655-Y21
Copyright IBM Corp. 1988, 2019.  All Rights Reserved.

Type 'help' for a list of available commands.
Type 'help' followed by a command name for more
information on commands.

CPLEX> Logfile 'cplex.log' closed.
Logfile 'C:\Users\llavin\Desktop\test85\logs\tmpuitqtgwe.cplex.log' open.
CPLEX> New value for parallel optimization mode: -1
CPLEX> New value for mixed integer optimality gap tolerance: 0.001
CPLEX> New value for deterministic time limit in ticks: 100000
CPLEX> Problem 'C:\Users\llavin\Desktop\test85\logs\tmpc81yjh8x.pyomo.lp' read.
Read time = 0.23 sec. (14.72 ticks)
CPLEX> Problem name         : C:\Users\llavin\Desktop\test85\logs\tmpc81yjh8x.pyomo.lp
Objective sense      : Maximize
Variables            :   53803  [Nneg: 1,  Box: 21998,  Free: 4464,
                                 Binary: 27340]
Objective nonzeros   :    9020
Linear constraints   :  123205  [Less: 41346,  Greater: 59096,  Equal: 22763]
  Nonzeros           :  289273
  RHS nonzeros       :   67457

Variables            : Min LB: -5000.000        Max UB: 1000000.       
Objective nonzeros   : Min   : 1.600000         Max   : 2500.000       
Linear constraints   :
  Nonzeros           : Min   : 0.8500000        Max   : 1000000.       
  RHS nonzeros       : Min   : 1.000000         Max   : 1000000.       
CPLEX> CPXPARAM_Parallel                                -1
CPXPARAM_DetTimeLimit                            100000
CPXPARAM_MIP_Tolerances_MIPGap                   0.001
Tried aggregator 3 times.
MIP Presolve eliminated 88853 rows and 19149 columns.
MIP Presolve added 3359 rows and 0 columns.
MIP Presolve modified 24796 coefficients.
Aggregator did 12977 substitutions.
Reduced MIP has 24734 rows, 21095 columns, and 68104 nonzeros.
Reduced MIP has 8337 binaries, 0 generals, 0 SOSs, and 0 indicators.
Presolve time = 0.28 sec. (166.95 ticks)
Probing fixed 386 vars, tightened 3830 bounds.
Probing time = 0.06 sec. (17.69 ticks)
Tried aggregator 2 times.
MIP Presolve eliminated 879 rows and 781 columns.
MIP Presolve modified 3125 coefficients.
Aggregator did 35 substitutions.
Reduced MIP has 23820 rows, 20279 columns, and 65455 nonzeros.
Reduced MIP has 7947 binaries, 0 generals, 0 SOSs, and 0 indicators.
Presolve time = 0.11 sec. (91.16 ticks)
Probing fixed 0 vars, tightened 307 bounds.
Probing time = 0.13 sec. (22.13 ticks)
Clique table members: 44007.
MIP emphasis: balance optimality and feasibility.
MIP search method: dynamic search.
Parallel mode: opportunistic, using up to 32 threads.
Root relaxation solution time = 0.34 sec. (548.43 ticks)

        Nodes                                         Cuts/
   Node  Left     Objective  IInf  Best Integer    Best Bound    ItCnt     Gap

      0     0     2689.7167    58                   2689.7167     4846         
      0     0     2689.7023     7                    Cuts: 18     4864         
      0     0     2689.7023     6                     Cuts: 6     4867         
      0     0     2688.1167     8                     Cuts: 3     4871         
      0     0     2687.8524     7                     Cuts: 2     4873         
*     0+    0                         -249.2663     2687.8524              --- 
      0     4        cutoff            971.4517   Impl Bds: 1     4916   61.16%
Elapsed time = 3.81 sec. (1868.68 ticks, tree = 0.02 MB, solutions = 2)

Implied bound cuts applied:  3
Flow cuts applied:  5
Gomory fractional cuts applied:  1

Root node processing (before b&c):
  Real time             =    2.83 sec. (1855.94 ticks)
Parallel b&c, 32 threads:
  Real time             =    1.13 sec. (136.40 ticks)
  Sync time (average)   =    0.44 sec.
  Wait time (average)   =    0.00 sec.
                          ------------
Total (root+branch&cut) =    3.95 sec. (1992.34 ticks)

Solution pool: 2 solutions saved.

MIP - Integer optimal solution:  Objective =  9.7145172666e+02
Solution time =    3.97 sec.  Iterations = 4953  Nodes = 16
Deterministic time = 1992.50 ticks  (502.01 ticks/sec)

CPLEX> Incumbent solution written to file 'C:\Users\llavin\Desktop\test85\logs\tmpj6qyfkyl.cplex.sol'.
CPLEX> NOTE: no warmstart specified for MIP iteration, default behavior is true
NOTE: resolving with all competitive generators using storage-only solution to warmstart
Solving...

Welcome to IBM(R) ILOG(R) CPLEX(R) Interactive Optimizer 12.9.0.0
  with Simplex, Mixed Integer & Barrier Optimizers
5725-A06 5725-A29 5724-Y48 5724-Y49 5724-Y54 5724-Y55 5655-Y21
Copyright IBM Corp. 1988, 2019.  All Rights Reserved.

Type 'help' for a list of available commands.
Type 'help' followed by a command name for more
information on commands.

CPLEX> Logfile 'cplex.log' closed.
Logfile 'C:\Users\llavin\Desktop\test85\logs\tmpeoko2ge8.cplex.log' open.
CPLEX> New value for parallel optimization mode: -1
CPLEX> New value for mixed integer optimality gap tolerance: 0.001
CPLEX> New value for deterministic time limit in ticks: 100000
CPLEX> Problem 'C:\Users\llavin\Desktop\test85\logs\tmpj59zddq9.pyomo.lp' read.
Read time = 0.23 sec. (14.75 ticks)
CPLEX> MIP start file 'C:\Users\llavin\Desktop\test85\logs\tmpy3uujmo2.cplex.mst' read.
CPLEX> Problem name         : C:\Users\llavin\Desktop\test85\logs\tmpj59zddq9.pyomo.lp
Objective sense      : Maximize
Variables            :   54523  [Nneg: 1,  Box: 22718,  Free: 4464,
                                 Binary: 27340]
Objective nonzeros   :    9716
Linear constraints   :  123205  [Less: 41346,  Greater: 59096,  Equal: 22763]
  Nonzeros           :  289273
  RHS nonzeros       :   67457

Variables            : Min LB: -5000.000        Max UB: 1000000.       
Objective nonzeros   : Min   : 1.600000         Max   : 2500.000       
Linear constraints   :
  Nonzeros           : Min   : 0.8500000        Max   : 1000000.       
  RHS nonzeros       : Min   : 1.000000         Max   : 1000000.       
CPLEX> CPXPARAM_Parallel                                -1
CPXPARAM_DetTimeLimit                            100000
CPXPARAM_MIP_Tolerances_MIPGap                   0.001
1 of 1 MIP starts provided solutions.
MIP start 'm1' defined initial solution with objective 971.4517.
Tried aggregator 3 times.
MIP Presolve eliminated 88853 rows and 19869 columns.
MIP Presolve added 3359 rows and 0 columns.
MIP Presolve modified 24796 coefficients.
Aggregator did 12977 substitutions.
Reduced MIP has 24734 rows, 21095 columns, and 68104 nonzeros.
Reduced MIP has 8337 binaries, 0 generals, 0 SOSs, and 0 indicators.
Presolve time = 0.30 sec. (167.30 ticks)
Probing fixed 386 vars, tightened 3830 bounds.
Probing time = 0.06 sec. (17.69 ticks)
Tried aggregator 2 times.
MIP Presolve eliminated 879 rows and 781 columns.
MIP Presolve modified 3125 coefficients.
Aggregator did 35 substitutions.
Reduced MIP has 23820 rows, 20279 columns, and 65455 nonzeros.
Reduced MIP has 7947 binaries, 0 generals, 0 SOSs, and 0 indicators.
Presolve time = 0.11 sec. (91.16 ticks)
Probing fixed 0 vars, tightened 307 bounds.
Probing time = 0.13 sec. (22.13 ticks)
Clique table members: 44007.
MIP emphasis: balance optimality and feasibility.
MIP search method: dynamic search.
Parallel mode: opportunistic, using up to 32 threads.
Root relaxation solution time = 0.41 sec. (568.97 ticks)

        Nodes                                         Cuts/
   Node  Left     Objective  IInf  Best Integer    Best Bound    ItCnt     Gap

*     0+    0                          971.4517   7.22932e+07              --- 
      0     0    99524.1983   153      971.4517    99524.1983     5585     --- 
*     0+    0                          971.4518    99524.1983              --- 
      0     0    97024.2770   133      971.4518     Cuts: 212     5754     --- 
      0     0    96776.0198   156      971.4518     Cuts: 233     5980     --- 
      0     0    95947.5272   144      971.4518     Cuts: 186     6084     --- 
      0     0    94878.9356   141      971.4518      Cuts: 59     6126     --- 
      0     0    94833.3058   142      971.4518      Cuts: 16     6144     --- 
      0     0    94833.3058   141      971.4518      Cuts: 19     6165     --- 
      0     0    94833.3058    83      971.4518       Cuts: 5     6177     --- 
      0     0    94833.3058    93      971.4518      Cuts: 26     6211     --- 
      0    24    infeasible            971.4518  Impl Bds: 25     6971     --- 
Elapsed time = 5.58 sec. (3023.39 ticks, tree = 0.02 MB, solutions = 2)
    365    97    18034.9202    23      971.4518    90035.7673    10398     --- 
    969   341     7254.9415    24      971.4518    90035.7673    20112     --- 
   1475   345    infeasible            971.4518    29158.0494    30754     --- 
   2293   109    infeasible            971.4518    12090.0993    34499     --- 

Implied bound cuts applied:  44
Flow cuts applied:  68
Mixed integer rounding cuts applied:  37
Lift and project cuts applied:  2
Gomory fractional cuts applied:  11

Root node processing (before b&c):
  Real time             =    4.34 sec. (3011.80 ticks)
Parallel b&c, 32 threads:
  Real time             =    7.01 sec. (1181.41 ticks)
  Sync time (average)   =    1.82 sec.
  Wait time (average)   =    0.00 sec.
                          ------------
Total (root+branch&cut) =   11.36 sec. (4193.20 ticks)

Solution pool: 2 solutions saved.

MIP - Integer optimal solution:  Objective =  9.7145176493e+02
Solution time =   11.36 sec.  Iterations = 35551  Nodes = 2590
Deterministic time = 4193.36 ticks  (369.17 ticks/sec)

CPLEX> Incumbent solution written to file 'C:\Users\llavin\Desktop\test85\logs\tmpet3x3gk9.cplex.sol'.
CPLEX> Exporting results... 
